p cnf 30 196
1 2 3 0
4 5 6 0
7 8 9 0
10 11 12 0
13 14 15 0
16 17 18 0
19 20 21 0
22 23 24 0
25 26 27 0
28 29 30 0
-1 -2 0
-1 -3 0
-2 -3 0
-4 -5 0
-4 -6 0
-5 -6 0
-7 -8 0
-7 -9 0
-8 -9 0
-10 -11 0
-10 -12 0
-11 -12 0
-13 -14 0
-13 -15 0
-14 -15 0
-16 -17 0
-16 -18 0
-17 -18 0
-19 -20 0
-19 -21 0
-20 -21 0
-22 -23 0
-22 -24 0
-23 -24 0
-25 -26 0
-25 -27 0
-26 -27 0
-28 -29 0
-28 -30 0
-29 -30 0
-1 -7 0
-1 -10 0
-1 -13 0
-1 -16 0
-1 -25 0
-1 -28 0
-4 -7 0
-4 -10 0
-4 -19 0
-4 -28 0
-7 -1 0
-7 -4 0
-7 -10 0
-7 -16 0
-7 -28 0
-10 -1 0
-10 -4 0
-10 -7 0
-10 -13 0
-10 -28 0
-13 -1 0
-13 -10 0
-13 -16 0
-13 -19 0
-13 -22 0
-13 -28 0
-16 -1 0
-16 -7 0
-16 -13 0
-16 -19 0
-16 -22 0
-16 -28 0
-19 -4 0
-19 -13 0
-19 -16 0
-19 -22 0
-19 -25 0
-19 -28 0
-22 -13 0
-22 -16 0
-22 -19 0
-22 -25 0
-25 -1 0
-25 -19 0
-25 -22 0
-28 -1 0
-28 -4 0
-28 -7 0
-28 -10 0
-28 -13 0
-28 -16 0
-28 -19 0
-2 -8 0
-2 -11 0
-2 -14 0
-2 -17 0
-2 -26 0
-2 -29 0
-5 -8 0
-5 -11 0
-5 -20 0
-5 -29 0
-8 -2 0
-8 -5 0
-8 -11 0
-8 -17 0
-8 -29 0
-11 -2 0
-11 -5 0
-11 -8 0
-11 -14 0
-11 -29 0
-14 -2 0
-14 -11 0
-14 -17 0
-14 -20 0
-14 -23 0
-14 -29 0
-17 -2 0
-17 -8 0
-17 -14 0
-17 -20 0
-17 -23 0
-17 -29 0
-20 -5 0
-20 -14 0
-20 -17 0
-20 -23 0
-20 -26 0
-20 -29 0
-23 -14 0
-23 -17 0
-23 -20 0
-23 -26 0
-26 -2 0
-26 -20 0
-26 -23 0
-29 -2 0
-29 -5 0
-29 -8 0
-29 -11 0
-29 -14 0
-29 -17 0
-29 -20 0
-3 -9 0
-3 -12 0
-3 -15 0
-3 -18 0
-3 -27 0
-3 -30 0
-6 -9 0
-6 -12 0
-6 -21 0
-6 -30 0
-9 -3 0
-9 -6 0
-9 -12 0
-9 -18 0
-9 -30 0
-12 -3 0
-12 -6 0
-12 -9 0
-12 -15 0
-12 -30 0
-15 -3 0
-15 -12 0
-15 -18 0
-15 -21 0
-15 -24 0
-15 -30 0
-18 -3 0
-18 -9 0
-18 -15 0
-18 -21 0
-18 -24 0
-18 -30 0
-21 -6 0
-21 -15 0
-21 -18 0
-21 -24 0
-21 -27 0
-21 -30 0
-24 -15 0
-24 -18 0
-24 -21 0
-24 -27 0
-27 -3 0
-27 -21 0
-27 -24 0
-30 -3 0
-30 -6 0
-30 -9 0
-30 -12 0
-30 -15 0
-30 -18 0
-30 -21 0
